; --full-saturate-quant --inst-when=full-last-call --inst-no-entail --term-db-mode=relevant --random-seed=1 --lang=smt2 --tlimit 164
;(set-option :produce-unsat-cores true)
(set-logic ALL_SUPPORTED)
(declare-sort N$ 0)
(declare-sort T$ 0)
(declare-sort Dtree$ 0)
(declare-sort N_set$ 0)
(declare-sort T_bool_fun$ 0)
(declare-sort Dtree_bool_fun$ 0)
(declare-sort T_dtree_sum_set$ 0)
(declare-sort Dtree_T_bool_fun_fun$ 0)
(declare-datatypes () ((T_dtree_sum$ (inl$ (projl$ T$)) (inr$ (projr$ Dtree$)))))
(declare-fun t$ () T$)
(declare-fun ns$ () N_set$)
(declare-fun tr$ () Dtree$)
(declare-fun cont$ (Dtree$) T_dtree_sum_set$)
(declare-fun inFr$ (N_set$) Dtree_T_bool_fun_fun$)
(declare-fun node$ (N$ T_dtree_sum_set$) Dtree$)
(declare-fun root$ (Dtree$) N$)
(declare-fun inFr2$ (N_set$) Dtree_T_bool_fun_fun$)
(declare-fun member$ (N$ N_set$) Bool)
(declare-fun fun_app$ (T_bool_fun$ T$) Bool)
(declare-fun member$a (T_dtree_sum$ T_dtree_sum_set$) Bool)
(declare-fun fun_app$a (Dtree_T_bool_fun_fun$ Dtree$) T_bool_fun$)
(declare-fun pred_sum$ (T_bool_fun$ Dtree_bool_fun$ T_dtree_sum$) Bool)
(assert (! (not (fun_app$ (fun_app$a (inFr$ ns$) tr$) t$)) :named a0))
(assert (! (member$ (root$ tr$) ns$) :named a1))
(assert (! (member$a (inl$ t$) (cont$ tr$)) :named a2))
(assert (! (forall ((?v0 N_set$) (?v1 Dtree$) (?v2 T$)) (=> (fun_app$ (fun_app$a (inFr$ ?v0) ?v1) ?v2) (member$ (root$ ?v1) ?v0))) :named a3))
(assert (! (forall ((?v0 Dtree$) (?v1 N_set$) (?v2 T$)) (=> (and (member$ (root$ ?v0) ?v1) (member$a (inl$ ?v2) (cont$ ?v0))) (fun_app$ (fun_app$a (inFr$ ?v1) ?v0) ?v2))) :named a4))
(assert (! (forall ((?v0 T$) (?v1 T$)) (= (= (inl$ ?v0) (inl$ ?v1)) (= ?v0 ?v1))) :named a5))
(assert (! (forall ((?v0 T$) (?v1 T$)) (= (= (inl$ ?v0) (inl$ ?v1)) (= ?v0 ?v1))) :named a6))
(assert (! (forall ((?v0 Dtree$) (?v1 Dtree$)) (=> (and (= (root$ ?v0) (root$ ?v1)) (= (cont$ ?v0) (cont$ ?v1))) (= ?v0 ?v1))) :named a7))
(assert (! (forall ((?v0 Dtree$) (?v1 N_set$) (?v2 T$)) (=> (and (member$ (root$ ?v0) ?v1) (member$a (inl$ ?v2) (cont$ ?v0))) (fun_app$ (fun_app$a (inFr2$ ?v1) ?v0) ?v2))) :named a8))
(assert (! (forall ((?v0 N_set$) (?v1 Dtree$) (?v2 T$)) (= (fun_app$ (fun_app$a (inFr$ ?v0) ?v1) ?v2) (or (exists ((?v3 Dtree$) (?v4 N_set$) (?v5 T$)) (and (= ?v0 ?v4) (and (= ?v1 ?v3) (and (= ?v2 ?v5) (and (member$ (root$ ?v3) ?v4) (member$a (inl$ ?v5) (cont$ ?v3))))))) (exists ((?v3 Dtree$) (?v4 N_set$) (?v5 Dtree$) (?v6 T$)) (and (= ?v0 ?v4) (and (= ?v1 ?v3) (and (= ?v2 ?v6) (and (member$ (root$ ?v3) ?v4) (and (member$a (inr$ ?v5) (cont$ ?v3)) (fun_app$ (fun_app$a (inFr$ ?v4) ?v5) ?v6)))))))))) :named a9))
(assert (! (forall ((?v0 N_set$) (?v1 Dtree$) (?v2 T$)) (=> (and (fun_app$ (fun_app$a (inFr$ ?v0) ?v1) ?v2) (and (forall ((?v3 Dtree$) (?v4 N_set$) (?v5 T$)) (=> (and (= ?v0 ?v4) (and (= ?v1 ?v3) (and (= ?v2 ?v5) (and (member$ (root$ ?v3) ?v4) (member$a (inl$ ?v5) (cont$ ?v3)))))) false)) (forall ((?v3 Dtree$) (?v4 N_set$) (?v5 Dtree$) (?v6 T$)) (=> (and (= ?v0 ?v4) (and (= ?v1 ?v3) (and (= ?v2 ?v6) (and (member$ (root$ ?v3) ?v4) (and (member$a (inr$ ?v5) (cont$ ?v3)) (fun_app$ (fun_app$a (inFr$ ?v4) ?v5) ?v6)))))) false)))) false)) :named a10))
(assert (! (forall ((?v0 T$) (?v1 T$)) (=> (= (inl$ ?v0) (inl$ ?v1)) (= ?v0 ?v1))) :named a11))
(assert (! (forall ((?v0 Dtree$)) (= (node$ (root$ ?v0) (cont$ ?v0)) ?v0)) :named a12))
(assert (! (forall ((?v0 Dtree$) (?v1 N_set$) (?v2 Dtree$) (?v3 T$)) (=> (and (member$ (root$ ?v0) ?v1) (and (member$a (inr$ ?v2) (cont$ ?v0)) (fun_app$ (fun_app$a (inFr$ ?v1) ?v2) ?v3))) (fun_app$ (fun_app$a (inFr$ ?v1) ?v0) ?v3))) :named a13))
(assert (! (forall ((?v0 N_set$) (?v1 Dtree$) (?v2 T$)) (=> (fun_app$ (fun_app$a (inFr2$ ?v0) ?v1) ?v2) (member$ (root$ ?v1) ?v0))) :named a14))
(assert (! (forall ((?v0 T_bool_fun$) (?v1 Dtree_bool_fun$) (?v2 T$)) (! (= (pred_sum$ ?v0 ?v1 (inl$ ?v2)) (fun_app$ ?v0 ?v2)) :pattern ((pred_sum$ ?v0 ?v1 (inl$ ?v2))))) :named a15))
(assert (! (forall ((?v0 Dtree$) (?v1 Dtree$)) (= (= (inr$ ?v0) (inr$ ?v1)) (= ?v0 ?v1))) :named a16))
(assert (! (forall ((?v0 Dtree$) (?v1 Dtree$)) (= (= (inr$ ?v0) (inr$ ?v1)) (= ?v0 ?v1))) :named a17))
(assert (! (forall ((?v0 N$) (?v1 T_dtree_sum_set$)) (= (root$ (node$ ?v0 ?v1)) ?v0)) :named a18))
(check-sat)
;(get-unsat-core)
